c File: flat50_3_0.col
c
c SOURCE: Joseph Culberson (joe@cs.ualberta.ca)
c DESCRIPTION: Quasi-random coloring problem
c              generated with flatness = 0
c                             probability = 0.139
c                             known coloring = 3
c                             random seed = 1615
c              Creation Date:  Tue Jun  9 12:13:39 1998
c Maximum degree = 8 Minimum degree = 0
c p edge 50 115
c cnf created by edge2cnf
p cnf 150 545
-1 -2 0
-1 -3 0
-2 -3 0
1 2 3 0
-4 -5 0
-4 -6 0
-5 -6 0
4 5 6 0
-7 -8 0
-7 -9 0
-8 -9 0
7 8 9 0
-10 -11 0
-10 -12 0
-11 -12 0
10 11 12 0
-13 -14 0
-13 -15 0
-14 -15 0
13 14 15 0
-16 -17 0
-16 -18 0
-17 -18 0
16 17 18 0
-19 -20 0
-19 -21 0
-20 -21 0
19 20 21 0
-22 -23 0
-22 -24 0
-23 -24 0
22 23 24 0
-25 -26 0
-25 -27 0
-26 -27 0
25 26 27 0
-28 -29 0
-28 -30 0
-29 -30 0
28 29 30 0
-31 -32 0
-31 -33 0
-32 -33 0
31 32 33 0
-34 -35 0
-34 -36 0
-35 -36 0
34 35 36 0
-37 -38 0
-37 -39 0
-38 -39 0
37 38 39 0
-40 -41 0
-40 -42 0
-41 -42 0
40 41 42 0
-43 -44 0
-43 -45 0
-44 -45 0
43 44 45 0
-46 -47 0
-46 -48 0
-47 -48 0
46 47 48 0
-49 -50 0
-49 -51 0
-50 -51 0
49 50 51 0
-52 -53 0
-52 -54 0
-53 -54 0
52 53 54 0
-55 -56 0
-55 -57 0
-56 -57 0
55 56 57 0
-58 -59 0
-58 -60 0
-59 -60 0
58 59 60 0
-61 -62 0
-61 -63 0
-62 -63 0
61 62 63 0
-64 -65 0
-64 -66 0
-65 -66 0
64 65 66 0
-67 -68 0
-67 -69 0
-68 -69 0
67 68 69 0
-70 -71 0
-70 -72 0
-71 -72 0
70 71 72 0
-73 -74 0
-73 -75 0
-74 -75 0
73 74 75 0
-76 -77 0
-76 -78 0
-77 -78 0
76 77 78 0
-79 -80 0
-79 -81 0
-80 -81 0
79 80 81 0
-82 -83 0
-82 -84 0
-83 -84 0
82 83 84 0
-85 -86 0
-85 -87 0
-86 -87 0
85 86 87 0
-88 -89 0
-88 -90 0
-89 -90 0
88 89 90 0
-91 -92 0
-91 -93 0
-92 -93 0
91 92 93 0
-94 -95 0
-94 -96 0
-95 -96 0
94 95 96 0
-97 -98 0
-97 -99 0
-98 -99 0
97 98 99 0
-100 -101 0
-100 -102 0
-101 -102 0
100 101 102 0
-103 -104 0
-103 -105 0
-104 -105 0
103 104 105 0
-106 -107 0
-106 -108 0
-107 -108 0
106 107 108 0
-109 -110 0
-109 -111 0
-110 -111 0
109 110 111 0
-112 -113 0
-112 -114 0
-113 -114 0
112 113 114 0
-115 -116 0
-115 -117 0
-116 -117 0
115 116 117 0
-118 -119 0
-118 -120 0
-119 -120 0
118 119 120 0
-121 -122 0
-121 -123 0
-122 -123 0
121 122 123 0
-124 -125 0
-124 -126 0
-125 -126 0
124 125 126 0
-127 -128 0
-127 -129 0
-128 -129 0
127 128 129 0
-130 -131 0
-130 -132 0
-131 -132 0
130 131 132 0
-133 -134 0
-133 -135 0
-134 -135 0
133 134 135 0
-136 -137 0
-136 -138 0
-137 -138 0
136 137 138 0
-139 -140 0
-139 -141 0
-140 -141 0
139 140 141 0
-142 -143 0
-142 -144 0
-143 -144 0
142 143 144 0
-145 -146 0
-145 -147 0
-146 -147 0
145 146 147 0
-148 -149 0
-148 -150 0
-149 -150 0
148 149 150 0
-76 -1 0
-77 -2 0
-78 -3 0
-79 -1 0
-80 -2 0
-81 -3 0
-82 -1 0
-83 -2 0
-84 -3 0
-121 -1 0
-122 -2 0
-123 -3 0
-124 -1 0
-125 -2 0
-126 -3 0
-64 -4 0
-65 -5 0
-66 -6 0
-88 -4 0
-89 -5 0
-90 -6 0
-106 -4 0
-107 -5 0
-108 -6 0
-124 -4 0
-125 -5 0
-126 -6 0
-142 -4 0
-143 -5 0
-144 -6 0
-82 -7 0
-83 -8 0
-84 -9 0
-139 -7 0
-140 -8 0
-141 -9 0
-55 -10 0
-56 -11 0
-57 -12 0
-58 -10 0
-59 -11 0
-60 -12 0
-64 -10 0
-65 -11 0
-66 -12 0
-100 -10 0
-101 -11 0
-102 -12 0
-112 -10 0
-113 -11 0
-114 -12 0
-121 -10 0
-122 -11 0
-123 -12 0
-139 -10 0
-140 -11 0
-141 -12 0
-142 -10 0
-143 -11 0
-144 -12 0
-52 -13 0
-53 -14 0
-54 -15 0
-88 -13 0
-89 -14 0
-90 -15 0
-97 -13 0
-98 -14 0
-99 -15 0
-109 -13 0
-110 -14 0
-111 -15 0
-121 -13 0
-122 -14 0
-123 -15 0
-136 -13 0
-137 -14 0
-138 -15 0
-142 -13 0
-143 -14 0
-144 -15 0
-73 -16 0
-74 -17 0
-75 -18 0
-76 -16 0
-77 -17 0
-78 -18 0
-52 -19 0
-53 -20 0
-54 -21 0
-112 -19 0
-113 -20 0
-114 -21 0
-148 -19 0
-149 -20 0
-150 -21 0
-55 -22 0
-56 -23 0
-57 -24 0
-58 -22 0
-59 -23 0
-60 -24 0
-85 -22 0
-86 -23 0
-87 -24 0
-115 -22 0
-116 -23 0
-117 -24 0
-118 -22 0
-119 -23 0
-120 -24 0
-148 -22 0
-149 -23 0
-150 -24 0
-52 -25 0
-53 -26 0
-54 -27 0
-79 -25 0
-80 -26 0
-81 -27 0
-82 -25 0
-83 -26 0
-84 -27 0
-97 -25 0
-98 -26 0
-99 -27 0
-127 -25 0
-128 -26 0
-129 -27 0
-145 -28 0
-146 -29 0
-147 -30 0
-67 -31 0
-68 -32 0
-69 -33 0
-91 -31 0
-92 -32 0
-93 -33 0
-106 -31 0
-107 -32 0
-108 -33 0
-112 -31 0
-113 -32 0
-114 -33 0
-118 -31 0
-119 -32 0
-120 -33 0
-133 -31 0
-134 -32 0
-135 -33 0
-58 -34 0
-59 -35 0
-60 -36 0
-76 -34 0
-77 -35 0
-78 -36 0
-82 -34 0
-83 -35 0
-84 -36 0
-127 -34 0
-128 -35 0
-129 -36 0
-52 -37 0
-53 -38 0
-54 -39 0
-55 -37 0
-56 -38 0
-57 -39 0
-70 -37 0
-71 -38 0
-72 -39 0
-100 -37 0
-101 -38 0
-102 -39 0
-118 -37 0
-119 -38 0
-120 -39 0
-55 -40 0
-56 -41 0
-57 -42 0
-91 -40 0
-92 -41 0
-93 -42 0
-94 -40 0
-95 -41 0
-96 -42 0
-112 -40 0
-113 -41 0
-114 -42 0
-130 -40 0
-131 -41 0
-132 -42 0
-133 -40 0
-134 -41 0
-135 -42 0
-148 -40 0
-149 -41 0
-150 -42 0
-85 -43 0
-86 -44 0
-87 -45 0
-109 -43 0
-110 -44 0
-111 -45 0
-130 -43 0
-131 -44 0
-132 -45 0
-145 -43 0
-146 -44 0
-147 -45 0
-58 -46 0
-59 -47 0
-60 -48 0
-115 -46 0
-116 -47 0
-117 -48 0
-145 -46 0
-146 -47 0
-147 -48 0
-67 -49 0
-68 -50 0
-69 -51 0
-97 -49 0
-98 -50 0
-99 -51 0
-100 -49 0
-101 -50 0
-102 -51 0
-127 -49 0
-128 -50 0
-129 -51 0
-103 -52 0
-104 -53 0
-105 -54 0
-109 -52 0
-110 -53 0
-111 -54 0
-133 -52 0
-134 -53 0
-135 -54 0
-145 -52 0
-146 -53 0
-147 -54 0
-106 -55 0
-107 -56 0
-108 -57 0
-118 -55 0
-119 -56 0
-120 -57 0
-127 -55 0
-128 -56 0
-129 -57 0
-115 -58 0
-116 -59 0
-117 -60 0
-121 -58 0
-122 -59 0
-123 -60 0
-115 -64 0
-116 -65 0
-117 -66 0
-121 -64 0
-122 -65 0
-123 -66 0
-112 -67 0
-113 -68 0
-114 -69 0
-121 -67 0
-122 -68 0
-123 -69 0
-139 -67 0
-140 -68 0
-141 -69 0
-109 -70 0
-110 -71 0
-111 -72 0
-118 -70 0
-119 -71 0
-120 -72 0
-127 -70 0
-128 -71 0
-129 -72 0
-139 -70 0
-140 -71 0
-141 -72 0
-106 -73 0
-107 -74 0
-108 -75 0
-103 -76 0
-104 -77 0
-105 -78 0
-109 -76 0
-110 -77 0
-111 -78 0
-130 -76 0
-131 -77 0
-132 -78 0
-136 -76 0
-137 -77 0
-138 -78 0
-103 -79 0
-104 -80 0
-105 -81 0
-136 -79 0
-137 -80 0
-138 -81 0
-109 -82 0
-110 -83 0
-111 -84 0
-121 -82 0
-122 -83 0
-123 -84 0
-136 -82 0
-137 -83 0
-138 -84 0
-106 -88 0
-107 -89 0
-108 -90 0
-118 -88 0
-119 -89 0
-120 -90 0
-133 -88 0
-134 -89 0
-135 -90 0
-127 -91 0
-128 -92 0
-129 -93 0
-118 -94 0
-119 -95 0
-120 -96 0
-127 -94 0
-128 -95 0
-129 -96 0
-130 -94 0
-131 -95 0
-132 -96 0
-136 -94 0
-137 -95 0
-138 -96 0
-145 -97 0
-146 -98 0
-147 -99 0
-148 -100 0
-149 -101 0
-150 -102 0
